InboundTrucks  = 30;
OutboundTrucks = 30;
InboundDoors   = 15;
OutboundDoors  = 15;
ReleaseTime    = [30,75,69,16,47,117,77,60,80,74,8,77,1,116,107,60,33,70,29,24,91,60,69,107,70,60,50,81,110,19];
UnloadTime     = [23,18,32,23,21,10,12,32,26,20,33,35,25,28,33,25,18,33,25,11,15,28,31,9,17,21,18,9,18,27];
LoadTime       = [14,24,12,11,10,20,12,23,16,8,11,13,18,6,16,20,20,21,24,13,13,10,10,17,11,21,22,24,8,19];
TransferTime   = [| 5,0,0,0,0,0,0,0,0,1,0,0,0,9,0,1,9,0,2,0,0,5,0,0,1,11,0,0,0,0 | 0,1,10,0,5,0,0,0,0,0,6,0,0,3,0,0,6,0,0,3,0,0,3,0,0,0,0,0,2,6 | 0,0,4,0,0,0,6,0,2,0,0,0,0,9,5,0,0,4,7,4,1,0,0,0,0,0,4,0,7,0 | 6,0,0,4,0,0,0,0,0,5,0,0,2,0,0,0,0,0,6,0,0,5,10,0,5,0,0,2,0,0 | 0,5,0,6,0,7,0,4,0,8,3,0,0,0,0,0,3,0,8,5,0,0,2,0,0,5,6,0,0,0 | 0,9,2,0,0,0,0,0,0,0,12,0,0,0,3,10,0,6,8,0,2,0,0,0,0,0,0,0,0,2 | 0,0,0,1,0,0,5,12,0,6,0,0,0,0,0,0,0,0,3,0,4,1,0,0,1,0,0,0,0,0 | 6,4,10,0,4,0,0,2,0,0,6,0,0,0,0,0,2,0,0,0,0,0,1,4,10,6,0,10,2,0 | 0,4,0,0,0,0,0,0,2,0,0,3,0,12,3,0,0,4,0,0,0,0,0,6,0,0,0,0,0,0 | 6,0,0,6,0,4,3,0,0,5,0,10,4,0,0,4,0,0,2,0,0,1,0,0,0,0,0,1,0,0 | 0,1,0,0,0,0,0,1,0,0,6,6,0,3,0,0,0,0,0,6,0,0,2,0,0,2,0,0,0,0 | 0,0,0,0,12,0,9,0,0,0,11,0,0,0,6,0,9,3,0,0,0,8,0,0,0,8,0,0,0,4 | 0,0,4,0,0,0,3,0,0,1,0,0,4,0,0,1,0,11,1,0,0,2,0,0,3,0,0,0,0,9 | 7,4,0,0,4,12,9,2,0,0,0,0,0,0,0,0,5,0,0,6,7,0,0,0,0,6,0,0,5,0 | 0,0,6,0,0,4,0,0,6,0,0,0,0,12,6,0,0,0,0,0,0,0,0,2,0,6,0,0,0,2 | 0,0,0,2,5,0,0,12,0,6,0,0,1,0,0,0,0,0,0,9,0,1,0,0,5,0,0,4,0,4 | 0,5,0,0,5,0,0,1,11,0,2,0,9,4,0,0,6,8,7,1,0,0,4,0,0,1,0,0,6,0 | 0,0,4,0,0,1,0,12,4,0,0,0,0,0,0,0,0,5,0,0,0,0,0,2,0,9,1,8,0,0 | 3,0,6,3,0,0,0,0,0,3,0,0,2,0,0,1,0,0,0,0,0,2,0,0,1,0,0,6,12,0 | 0,0,0,0,1,11,0,3,0,9,4,0,0,5,0,0,0,8,0,4,0,0,4,0,0,0,0,0,1,0 | 0,0,6,0,0,2,0,0,3,0,0,2,0,0,2,0,0,0,0,0,3,0,0,2,0,0,0,0,8,6 | 2,0,0,1,0,11,4,0,0,0,0,0,5,9,0,1,0,9,4,0,0,6,0,0,5,0,0,0,0,0 | 4,2,0,0,3,9,0,3,0,0,0,0,0,6,0,0,1,0,7,4,0,0,6,0,6,0,0,0,2,0 | 0,7,2,6,9,1,0,5,6,0,0,2,12,0,5,0,0,3,0,0,5,0,10,6,0,0,0,0,0,0 | 0,0,0,1,6,0,0,0,0,1,0,6,4,0,0,5,0,9,2,0,0,6,0,0,2,0,0,4,0,0 | 6,0,0,8,2,0,0,0,0,0,5,0,0,3,0,0,0,0,5,0,0,0,2,0,0,0,0,12,2,0 | 0,0,0,0,0,2,0,0,6,0,0,0,0,0,5,0,0,4,0,0,0,0,9,6,0,0,0,9,0,1 | 1,0,0,2,0,11,6,0,0,6,9,0,4,5,0,6,0,0,0,0,0,0,0,0,3,0,0,2,9,0 | 0,6,0,0,1,0,0,3,0,0,0,0,12,0,0,0,0,0,0,3,0,0,3,0,0,2,9,0,6,0 | 10,0,4,0,0,1,0,0,1,8,6,2,0,0,1,0,0,2,5,0,2,0,0,6,11,10,1,0,0,0 |];
